p edge 100 493
e 1 12
e 1 19
e 1 26
e 1 33
e 1 70
e 1 74
e 1 76
e 1 84
e 1 99
e 2 10
e 2 16
e 2 26
e 2 28
e 2 30
e 2 32
e 2 34
e 2 62
e 2 68
e 2 71
e 2 84
e 3 5
e 3 16
e 3 21
e 3 39
e 3 41
e 3 44
e 3 52
e 3 54
e 3 58
e 3 68
e 3 77
e 3 83
e 3 94
e 4 56
e 4 59
e 4 78
e 4 85
e 4 88
e 4 90
e 5 6
e 5 50
e 5 92
e 5 95
e 5 98
e 6 44
e 6 62
e 6 82
e 6 84
e 6 97
e 7 10
e 7 15
e 7 22
e 7 28
e 7 49
e 7 50
e 7 51
e 7 70
e 7 78
e 7 79
e 7 82
e 7 93
e 7 99
e 8 11
e 8 16
e 8 18
e 8 35
e 8 45
e 8 57
e 8 68
e 8 70
e 8 76
e 8 83
e 8 84
e 8 89
e 9 12
e 9 25
e 9 34
e 9 42
e 9 53
e 9 60
e 9 62
e 9 64
e 9 71
e 9 72
e 9 92
e 10 11
e 10 19
e 10 45
e 10 49
e 10 57
e 10 60
e 10 74
e 10 84
e 10 88
e 10 97
e 11 13
e 11 23
e 11 39
e 11 64
e 11 67
e 11 68
e 12 26
e 12 30
e 12 38
e 12 42
e 12 52
e 12 53
e 12 58
e 12 59
e 12 60
e 12 64
e 12 68
e 12 82
e 12 95
e 13 17
e 13 18
e 13 25
e 13 30
e 13 43
e 13 51
e 13 56
e 13 79
e 13 81
e 13 85
e 14 34
e 14 42
e 14 55
e 14 57
e 14 60
e 14 61
e 14 62
e 14 64
e 14 65
e 14 68
e 14 95
e 15 18
e 15 22
e 15 25
e 15 31
e 15 39
e 15 42
e 15 47
e 15 53
e 15 56
e 15 57
e 15 65
e 15 75
e 15 81
e 15 93
e 16 31
e 16 40
e 16 54
e 16 57
e 16 58
e 16 93
e 16 94
e 17 22
e 17 26
e 17 33
e 17 38
e 17 39
e 17 55
e 17 65
e 17 66
e 17 87
e 18 20
e 18 33
e 18 54
e 18 56
e 18 62
e 18 63
e 18 80
e 18 99
e 19 23
e 19 43
e 19 59
e 19 70
e 19 71
e 19 79
e 19 87
e 19 92
e 19 94
e 19 96
e 19 100
e 20 23
e 20 28
e 20 31
e 20 35
e 20 48
e 20 58
e 20 64
e 20 66
e 20 87
e 21 22
e 21 23
e 21 25
e 21 40
e 21 41
e 21 50
e 21 53
e 21 60
e 21 62
e 21 75
e 21 94
e 21 96
e 22 33
e 22 43
e 22 44
e 22 51
e 22 56
e 22 68
e 23 40
e 23 54
e 23 57
e 23 78
e 23 85
e 23 91
e 24 26
e 24 27
e 24 35
e 24 41
e 24 44
e 24 55
e 24 72
e 24 79
e 24 80
e 25 54
e 25 55
e 25 77
e 25 87
e 25 93
e 26 37
e 26 41
e 26 44
e 26 51
e 26 57
e 26 62
e 26 84
e 26 88
e 26 92
e 26 97
e 27 28
e 27 29
e 27 32
e 27 36
e 27 45
e 27 46
e 27 89
e 27 90
e 27 91
e 28 29
e 28 46
e 28 77
e 28 82
e 28 84
e 28 88
e 28 91
e 28 95
e 28 100
e 29 37
e 29 46
e 29 50
e 29 59
e 29 70
e 29 72
e 29 73
e 29 78
e 29 87
e 30 32
e 30 36
e 30 58
e 30 62
e 30 70
e 30 73
e 30 83
e 30 84
e 30 87
e 30 89
e 30 92
e 30 98
e 31 34
e 31 41
e 31 47
e 31 51
e 31 61
e 31 66
e 31 93
e 31 99
e 31 100
e 32 44
e 32 46
e 32 54
e 32 59
e 32 65
e 32 79
e 33 48
e 33 51
e 33 52
e 33 55
e 33 71
e 33 72
e 33 74
e 33 87
e 33 89
e 33 90
e 33 92
e 34 36
e 34 40
e 34 60
e 34 73
e 34 76
e 34 100
e 35 42
e 35 52
e 36 48
e 36 49
e 36 78
e 36 86
e 37 60
e 37 77
e 37 96
e 38 44
e 38 65
e 38 80
e 38 83
e 38 91
e 38 93
e 39 40
e 39 45
e 39 46
e 39 47
e 39 49
e 39 54
e 40 55
e 40 56
e 40 70
e 40 71
e 40 80
e 41 45
e 41 53
e 41 57
e 41 76
e 42 45
e 42 56
e 42 70
e 42 71
e 42 84
e 43 45
e 43 51
e 43 67
e 43 100
e 44 68
e 44 79
e 44 87
e 44 89
e 44 96
e 45 52
e 45 56
e 45 59
e 45 64
e 45 65
e 45 81
e 45 96
e 46 72
e 46 78
e 46 100
e 47 63
e 47 65
e 47 66
e 47 71
e 47 89
e 48 50
e 48 51
e 48 62
e 48 80
e 48 86
e 48 95
e 49 53
e 49 55
e 49 57
e 49 70
e 49 75
e 49 82
e 49 89
e 49 97
e 50 53
e 50 67
e 50 73
e 50 77
e 50 80
e 50 81
e 50 90
e 50 97
e 51 59
e 51 60
e 51 65
e 51 67
e 51 83
e 51 90
e 52 87
e 52 99
e 53 56
e 53 72
e 54 82
e 54 91
e 55 66
e 55 70
e 55 78
e 55 97
e 56 72
e 56 91
e 57 62
e 57 65
e 57 73
e 57 89
e 58 79
e 58 80
e 59 63
e 59 81
e 59 97
e 60 65
e 61 65
e 61 79
e 61 98
e 62 64
e 62 67
e 62 68
e 62 80
e 62 81
e 63 69
e 63 86
e 64 65
e 65 67
e 65 73
e 65 77
e 65 81
e 66 67
e 66 74
e 66 80
e 66 86
e 67 77
e 69 78
e 69 92
e 69 94
e 69 99
e 70 77
e 70 97
e 71 78
e 71 81
e 71 88
e 72 91
e 72 99
e 73 95
e 74 88
e 75 77
e 75 82
e 75 83
e 75 94
e 75 97
e 76 97
e 76 99
e 77 85
e 77 89
e 77 93
e 78 87
e 78 91
e 79 81
e 79 89
e 80 89
e 80 91
e 80 92
e 80 99
e 82 86
e 83 88
e 83 91
e 83 95
e 83 97
e 84 89
e 84 90
e 84 93
e 85 95
e 86 89
e 86 93
e 86 95
e 86 100
e 88 92
e 88 98
e 88 99
e 89 94
e 89 95
e 89 97
e 91 94
e 95 99
